# Solution for model GasLib-40
# Objective value = 5.9430437155621249e+01
loadshed[innode_1] 0
loadshed[innode_2] 0
loadshed[innode_3] 0
loadshed[innode_4] 0
loadshed[innode_5] 0
loadshed[innode_6] 0
loadshed[innode_7] 0
loadshed[innode_8] 0
loadshed[source_1] -0.0823503662286933
loadshed[source_2] 2.0364912642548738e-01
loadshed[source_3] 2.5462845045139249e-01
loadshed[sink_1] 6.9311808315400536e-01
loadshed[sink_2] 0
loadshed[sink_3] 0
loadshed[sink_4] 0
loadshed[sink_5] 0
loadshed[sink_6] 0
loadshed[sink_7] 0
loadshed[sink_8] 0
loadshed[sink_9] 0
loadshed[sink_10] 0
loadshed[sink_11] 0
loadshed[sink_12] 1
loadshed[sink_13] 0
loadshed[sink_14] 0
loadshed[sink_15] 0
loadshed[sink_16] 0
loadshed[sink_17] 0
loadshed[sink_18] 0
loadshed[sink_19] 0
loadshed[sink_20] 0
loadshed[sink_21] 1
loadshed[sink_22] 0
loadshed[sink_23] 0
loadshed[sink_24] 9.4084495311328076e-01
loadshed[sink_25] 0
loadshed[sink_26] 0
loadshed[sink_27] 0
loadshed[sink_28] 0
loadshed[sink_29] 0
flow[source_1,sink_3] 1.7110907004997364e+02
flow[innode_1,sink_16] 1.6354166666666970e+01
flow[innode_6,sink_13] -3.3568286491248074e+00
flow[sink_13,sink_14] -1.9710995315791475e+01
flow[sink_14,sink_10] -3.6065161982458143e+01
flow[sink_25,sink_26] 0
flow[sink_26,sink_9] 6.2905706950378914e+01
flow[sink_9,sink_18] 4.6551540283712242e+01
flow[sink_26,sink_4] -7.9259873617045614e+01
flow[sink_4,sink_20] -1.6952789617771370e+02
flow[sink_18,sink_6] 3.0197373617045571e+01
flow[sink_25,innode_8] -1.3840073671663728e+02
flow[sink_6,sink_7] -7.52975773137328
flow[sink_6,sink_22] 2.1372964681752208e+01
flow[sink_7,sink_24] 9.6743149595988931e-01
flow[sink_22,sink_1] 5.0187980150855385e+00
flow[sink_24,sink_21] 0
flow[sink_21,sink_12] 0
flow[sink_7,sink_5] -2.4851355893999845e+01
flow[sink_5,sink_17] -4.1205522560666509e+01
flow[sink_17,sink_4] -7.3913855894001529e+01
flow[sink_17,sink_8] 1.6354166666668334e+01
flow[sink_3,sink_23] 16.3541666666697
flow[sink_8,sink_20] 0
flow[sink_25,sink_20] 1.8588206284438058e+02
flow[sink_25,sink_15] -6.0478664145285464e+01
flow[sink_15,sink_29] -7.6832830811952135e+01
flow[sink_29,sink_28] 1.6354166666667879e+01
flow[sink_29,sink_2] 1.6354166666684250e+01
flow[sink_2,sink_15] 0
flow[sink_29,innode_7] -1.2589533081197068e+02
flow[innode_4,sink_19] 4.5621760455357673e+01
flow[sink_19,innode_3] 4.1541939723773332e+01
flow[innode_4,innode_5] 7.2214234860434331e+01
flow[sink_27,innode_5] -7.2214234860434331e+01
flow[sink_27,sink_19] 5.5860068193767667e+01
flow[sink_10,sink_11] 3.2708333333333641e+01
flow[sink_10,innode_2] -4.3585722258685117e+01
flow[sink_10,innode_3] -4.1541939723773332e+01
flow[innode_6,sink_25] 3.3568286491248074e+00
flow[sink_11,innode_1] 1.6354166666666970e+01
flow[sink_19,innode_2] 4.3585722258685117e+01
flow[source_3,innode_4] 117.835995315792
flow[source_2,innode_7] 1.2589533081197068e+02
flow[sink_3,innode_8] 1.3840073671663728e+02
pressure[innode_1] 7.6709609495141592e+01
pressure[innode_2] 7.9164996239045280e+01
pressure[innode_3] 7.9073006317641287e+01
pressure[innode_4] 81.01325
pressure[innode_5] 8.0963577241394589e+01
pressure[innode_6] 7.5101699141240132e+01
pressure[innode_7] 81.01325
pressure[innode_8] 8.0441297744856953e+01
pressure[source_1] 81.01325
pressure[source_2] 81.01325
pressure[source_3] 81.01325
pressure[sink_1] 1.0132500000000002e+00
pressure[sink_2] 7.7231773596707953e+01
pressure[sink_3] 8.0441297744856953e+01
pressure[sink_4] 1.8350628994429723e+01
pressure[sink_5] 1.2456371556869071e+01
pressure[sink_6] 2.0175213530188718e+00
pressure[sink_7] 2.1208869784446831e+00
pressure[sink_8] 1.4908799950153346e+01
pressure[sink_9] 4.5082546129074874e+00
pressure[sink_10] 7.6861310802745137e+01
pressure[sink_11] 7.6709609495141592e+01
pressure[sink_12] 1.01325
pressure[sink_13] 7.5120204776604581e+01
pressure[sink_14] 7.5155479281727736e+01
pressure[sink_15] 7.5395079594075639e+01
pressure[sink_16] 7.5687959660323912e+01
pressure[sink_17] 1.5525885145566972e+01
pressure[sink_18] 2.8238811379908437e+00
pressure[sink_19] 7.9164996239045280e+01
pressure[sink_20] 3.0787983719722806e+01
pressure[sink_21] 1.01325
pressure[sink_22] 1.3397015134875194e+00
pressure[sink_23] 8.0276579733197167e+01
pressure[sink_24] 1.01325
pressure[sink_25] 7.5101699141240132e+01
pressure[sink_26] 8.2733235290480973e+00
pressure[sink_27] 8.0364332529611261e+01
pressure[sink_28] 7.7350760821554431e+01
pressure[sink_29] 77.6460430951716
interdiction[source_1,sink_3] 0
interdiction[innode_1,sink_16] 0
interdiction[innode_6,sink_13] 0
interdiction[sink_13,sink_14] 0
interdiction[sink_14,sink_10] 0
interdiction[sink_25,sink_26] 1
interdiction[sink_26,sink_9] 0
interdiction[sink_9,sink_18] 0
interdiction[sink_26,sink_4] 0
interdiction[sink_4,sink_20] 0
interdiction[sink_18,sink_6] 0
interdiction[sink_25,innode_8] 0
interdiction[sink_6,sink_7] 0
interdiction[sink_6,sink_22] 0
interdiction[sink_7,sink_24] 0
interdiction[sink_22,sink_1] 0
interdiction[sink_24,sink_21] 0
interdiction[sink_21,sink_12] 0
interdiction[sink_7,sink_5] 0
interdiction[sink_5,sink_17] 0
interdiction[sink_17,sink_4] 0
interdiction[sink_17,sink_8] 0
interdiction[sink_3,sink_23] 0
interdiction[sink_8,sink_20] 1
interdiction[sink_25,sink_20] 0
interdiction[sink_25,sink_15] 0
interdiction[sink_15,sink_29] 0
interdiction[sink_29,sink_28] 0
interdiction[sink_29,sink_2] 0
interdiction[sink_2,sink_15] 1
interdiction[sink_29,innode_7] 0
interdiction[innode_4,sink_19] 0
interdiction[sink_19,innode_3] 0
interdiction[innode_4,innode_5] 0
interdiction[sink_27,innode_5] 0
interdiction[sink_27,sink_19] 0
interdiction[sink_10,sink_11] 0
interdiction[sink_10,innode_2] 0
interdiction[sink_10,innode_3] 0
interdiction[innode_6,sink_25] 0
interdiction[sink_11,innode_1] 0
interdiction[sink_19,innode_2] 0
interdiction[source_3,innode_4] 0
interdiction[source_2,innode_7] 0
interdiction[sink_3,innode_8] 0
WCcheckFlow[source_1,sink_3] 39
WCcheckFlow[innode_1,sink_16] 1
WCcheckFlow[innode_6,sink_13] 13
WCcheckFlow[sink_13,sink_14] 12
WCcheckFlow[sink_14,sink_10] 11
WCcheckFlow[sink_25,sink_26] 0
WCcheckFlow[sink_26,sink_9] 12
WCcheckFlow[sink_9,sink_18] 11
WCcheckFlow[sink_26,sink_4] -13
WCcheckFlow[sink_4,sink_20] -14
WCcheckFlow[sink_18,sink_6] 10
WCcheckFlow[sink_25,innode_8] -36
WCcheckFlow[sink_6,sink_7] 7
WCcheckFlow[sink_6,sink_22] 2
WCcheckFlow[sink_7,sink_24] 3
WCcheckFlow[sink_22,sink_1] 1
WCcheckFlow[sink_24,sink_21] 2
WCcheckFlow[sink_21,sink_12] 1
WCcheckFlow[sink_7,sink_5] 3
WCcheckFlow[sink_5,sink_17] 2
WCcheckFlow[sink_17,sink_4] 0
WCcheckFlow[sink_17,sink_8] 1
WCcheckFlow[sink_3,sink_23] 1
WCcheckFlow[sink_8,sink_20] 0
WCcheckFlow[sink_25,sink_20] 15
WCcheckFlow[sink_25,sink_15] 6
WCcheckFlow[sink_15,sink_29] 5
WCcheckFlow[sink_29,sink_28] 1
WCcheckFlow[sink_29,sink_2] 1
WCcheckFlow[sink_2,sink_15] 0
WCcheckFlow[sink_29,innode_7] 2
WCcheckFlow[innode_4,sink_19] -4
WCcheckFlow[sink_19,innode_3] -5
WCcheckFlow[innode_4,innode_5] 2
WCcheckFlow[sink_27,innode_5] -1
WCcheckFlow[sink_27,sink_19] 0
WCcheckFlow[sink_10,sink_11] 3
WCcheckFlow[sink_10,innode_2] 1
WCcheckFlow[sink_10,innode_3] 6
WCcheckFlow[innode_6,sink_25] -14
WCcheckFlow[sink_11,innode_1] 2
WCcheckFlow[sink_19,innode_2] 0
WCcheckFlow[source_3,innode_4] -1
WCcheckFlow[source_2,innode_7] -1
WCcheckFlow[sink_3,innode_8] 37
